
******************************************************************************
This program contains Ipopt, a library for large-scale nonlinear optimization.
 Ipopt is released as open source code under the Eclipse Public License (EPL).
         For more information visit http://projects.coin-or.org/Ipopt

This version of Ipopt was compiled from source code available at
    https://github.com/IDAES/Ipopt as part of the Institute for the Design of
    Advanced Energy Systems Process Systems Engineering Framework (IDAES PSE
    Framework) Copyright (c) 2018-2019. See https://github.com/IDAES/idaes-pse.

This version of Ipopt was compiled using HSL, a collection of Fortran codes
    for large-scale scientific computation.  All technical papers, sales and
    publicity material resulting from use of the HSL codes within IPOPT must
    contain the following acknowledgement:
        HSL, a collection of Fortran codes for large-scale scientific
        computation. See http://www.hsl.rl.ac.uk.
******************************************************************************

This is Ipopt version 3.13.2, running with linear solver ma27.

Number of nonzeros in equality constraint Jacobian...:     1210
Number of nonzeros in inequality constraint Jacobian.:        0
Number of nonzeros in Lagrangian Hessian.............:     1376

Total number of variables............................:      480
                     variables with only lower bounds:      128
                variables with lower and upper bounds:      288
                     variables with only upper bounds:        0
Total number of equality constraints.................:      477
Total number of inequality constraints...............:        0
        inequality constraints with only lower bounds:        0
   inequality constraints with lower and upper bounds:        0
        inequality constraints with only upper bounds:        0

iter    objective    inf_pr   inf_du lg(mu)  ||d||  lg(rg) alpha_du alpha_pr  ls
   0  0.0000000e+00 1.45e-01 2.84e-14  -1.0 0.00e+00    -  0.00e+00 0.00e+00   0
   1  1.2228488e+01 1.03e-01 2.23e+06  -1.0 3.35e+05    -  2.15e-01 9.90e-01h  1
   2  1.6355593e+01 9.73e-02 2.10e+06  -1.0 2.00e+06    -  3.48e-01 6.19e-02h  5
   3  1.4669412e+01 5.50e-02 1.19e+08  -1.0 3.74e+05  -4.0 6.68e-01 9.90e-01h  1
   4  1.7023413e+01 5.28e-02 9.18e+07  -1.0 1.41e+06  -3.6 4.56e-01 4.41e-02h  4
   5  1.8342434e+01 5.17e-02 8.66e+07  -1.0 1.95e+06  -4.1 4.91e-01 2.13e-02h  5
   6  1.9695531e+01 5.08e-02 7.90e+07  -1.0 1.79e+06  -3.6 5.27e-01 1.95e-02h  5
   7  2.0276496e+01 5.02e-02 7.69e+07  -1.0 2.29e+06  -4.1 2.09e-01 1.23e-02h  6
   8  2.1774033e+01 5.05e-02 7.19e+07  -1.0 1.85e+06  -3.7 5.45e-01 2.10e-02h  5
   9  2.3285856e+01 5.10e-02 6.54e+07  -1.0 1.71e+06  -3.3 8.44e-01 1.96e-02h  5
iter    objective    inf_pr   inf_du lg(mu)  ||d||  lg(rg) alpha_du alpha_pr  ls
  10  2.3840198e+01 5.04e-02 6.37e+07  -1.0 2.21e+06  -3.7 9.40e-01 1.38e-02h  6
  11  2.5878001e+01 5.04e-02 5.28e+07  -1.0 1.73e+06  -3.3 8.71e-01 2.91e-02h  5
  12  2.8135974e+01 5.03e-02 8.20e+07  -1.0 1.55e+06  -2.9 9.90e-01 3.14e-02h  5
  13  2.7614967e+01 5.13e-02 7.13e+07  -1.0 5.54e+06  -3.4 9.31e-02 6.55e-03f  7
  14  9.5809448e+01 3.45e+00 1.50e+10  -1.0 1.34e+06  -2.9 9.12e-01 6.25e-01w  1
  15  7.4327938e+01 2.87e+01 1.08e+10  -1.0 3.27e+05  -2.5 2.03e-01 9.32e-01w  1
  16  9.0781924e+01 5.35e+00 1.70e+11  -1.0 7.18e+05  -2.1 1.85e-01 9.90e-01w  1
  17  2.9579586e+01 4.94e-02 1.01e+08  -1.0 3.54e+06  -2.6 9.12e-01 3.90e-02h  4
  18  3.0990994e+01 4.82e-02 9.17e+07  -1.0 1.05e+06  -3.0 4.27e-01 4.67e-02h  5
  19  2.8463848e+01 5.49e-02 7.70e+07  -1.0 4.93e+06  -3.5 9.99e-02 1.73e-02f  5
iter    objective    inf_pr   inf_du lg(mu)  ||d||  lg(rg) alpha_du alpha_pr  ls
  20  3.1737077e+01 4.85e-02 1.19e+08  -1.0 5.87e+05  -3.1 1.00e+00 1.24e-01h  4
  21  3.1144381e+01 4.16e-02 2.12e+08  -1.0 1.09e+06  -3.6 9.26e-01 2.47e-01h  3
  22  3.8958102e+01 1.43e-02 2.83e+08  -1.0 1.89e+05  -3.1 1.00e+00 9.90e-01h  1
  23  3.5919668e+01 1.81e-03 8.47e+07  -1.0 5.28e+04  -2.7 9.42e-01 9.90e-01h  1
  24  3.5732606e+01 2.12e-05 7.10e+06  -1.0 2.05e+03  -3.2 9.87e-01 9.90e-01h  1
  25  3.5730734e+01 2.13e-07 2.24e+09  -1.0 2.42e+01  -3.7 1.00e+00 9.90e-01h  1
  26  3.5730688e+01 2.13e-09 2.24e+11  -1.0 3.06e-01  -4.1 1.00e+00 9.90e-01h  1
In iteration 26, 32 Slacks too small, adjusting variable bounds
  27  3.5730607e+01 2.21e-11 2.24e+13  -1.0 1.35e+00  -4.6 1.00e+00 9.90e-01h  1
  28  3.5550861e+01 5.47e-06 9.02e+14  -1.0 2.19e+06    -  4.14e-01 1.47e-03f  9
  29  3.5371588e+01 1.11e-05 2.21e+15  -1.0 2.29e+06    -  1.00e+00 1.40e-03f  9
iter    objective    inf_pr   inf_du lg(mu)  ||d||  lg(rg) alpha_du alpha_pr  ls
  30  3.5281882e+01 1.25e-05 2.21e+15  -1.0 2.31e+06    -  3.88e-01 6.94e-04f 10
  31  3.5192273e+01 1.39e-05 2.21e+15  -1.0 2.29e+06    -  1.00e+00 6.97e-04f 10
  32  3.5102511e+01 1.53e-05 2.21e+15  -1.0 2.05e+06    -  4.37e-01 7.78e-04f 10
  33  2.9670723e+01 2.55e+01 1.25e+15  -1.0 1.87e+06    -  1.00e+00 4.35e-01f  1
  34  3.1523269e+01 2.34e+00 6.11e+05  -1.0 9.21e+04  -5.1 2.35e-01 1.00e+00h  1
  35  2.7343511e+01 1.14e+00 7.46e+04  -1.0 9.66e+04  -5.6 1.00e+00 1.00e+00f  1
  36  2.3088997e+01 3.76e-01 1.19e+04  -1.0 1.56e+05  -6.0 5.56e-01 1.00e+00f  1
  37  2.1598354e+01 5.19e-02 8.50e+02  -1.7 1.05e+05  -6.5 1.00e+00 1.00e+00f  1
  38  2.1494459e+01 1.08e-03 1.33e+02  -2.5 1.87e+04  -7.0 1.00e+00 1.00e+00h  1
  39  2.1423215e+01 1.65e-06 4.90e+08  -5.7 8.32e+02  -7.5 9.99e-01 1.00e+00f  1
iter    objective    inf_pr   inf_du lg(mu)  ||d||  lg(rg) alpha_du alpha_pr  ls
  40  3.0362409e+00 1.33e-01 1.68e+01  -5.7 4.40e+05    -  1.00e+00 1.00e+00f  1
  41  6.6999925e+00 2.82e-02 1.23e+01  -5.7 1.95e+05    -  1.00e+00 1.00e+00h  1
  42  4.8177733e+00 1.18e-02 1.08e+00  -5.7 7.51e+04    -  1.00e+00 1.00e+00f  1
  43  4.8465687e+00 3.52e-03 1.25e-01  -5.7 3.97e+04    -  1.00e+00 1.00e+00h  1
  44  4.9249183e+00 3.75e-05 1.57e-02  -5.7 3.74e+03    -  1.00e+00 1.00e+00h  1
  45  4.9251788e+00 1.07e-08 1.85e-07  -5.7 3.33e+01    -  1.00e+00 1.00e+00h  1
  46  4.9251788e+00 6.58e-11 5.59e-08  -9.0 1.46e+00    -  1.00e+00 1.00e+00h  1

Number of Iterations....: 46

                                   (scaled)                 (unscaled)
Objective...............:   4.9251788498176161e+00    4.9251788498176161e+00
Dual infeasibility......:   5.5879354476928711e-08    5.5879354476928711e-08
Constraint violation....:   6.5833755114041992e-11    6.5833755114041992e-11
Complementarity.........:   9.2811090841187261e-10    9.2811090841187261e-10
Overall NLP error.......:   5.0084461385389988e-10    5.5879354476928711e-08


Number of objective function evaluations             = 177
Number of objective gradient evaluations             = 47
Number of equality constraint evaluations            = 177
Number of inequality constraint evaluations          = 0
Number of equality constraint Jacobian evaluations   = 47
Number of inequality constraint Jacobian evaluations = 0
Number of Lagrangian Hessian evaluations             = 46
Total CPU secs in IPOPT (w/o function evaluations)   =      0.069
Total CPU secs in NLP function evaluations           =      1.370

EXIT: Optimal Solution Found.
